Route #1: 34 46 24 22 53 10 23
Route #2: 5 7 49 36 17 26 1 28
Route #3: 4 18 50 39 29 20 43
Route #4: 6 32 13 11 3 27 2 14 41
Route #5: 35 38 44 9 33 21 45 15
Route #6: 19 31 8 48 40 37 12
Route #7: 52 16 42 51 47 25 30
cost 1349.582763671875